Version identifier: 12.10.0.0 | 2019-11-26 | 843d4de
CPXPARAM_WorkMem                                 16384
CPXPARAM_MIP_Limits_TreeMemory                   24576
Tried aggregator 2 times.
Aggregator did 45 substitutions.
Reduced MIP has 199 rows, 240 columns, and 976 nonzeros.
Reduced MIP has 240 binaries, 0 generals, 0 SOSs, and 0 indicators.
Presolve time = 0,00 sec. (0,92 ticks)
Found incumbent of value 676,000000 after 0,00 sec. (1,50 ticks)
Probing time = 0,00 sec. (0,37 ticks)
Tried aggregator 1 time.
Detecting symmetries...
MIP Presolve eliminated 24 rows and 0 columns.
MIP Presolve added 48 rows and 0 columns.
Reduced MIP has 223 rows, 240 columns, and 1000 nonzeros.
Reduced MIP has 240 binaries, 0 generals, 0 SOSs, and 0 indicators.
Presolve time = 0,00 sec. (1,23 ticks)
Probing time = 0,00 sec. (0,37 ticks)
Clique table members: 691.
MIP emphasis: balance optimality and feasibility.
MIP search method: dynamic search.
Parallel mode: deterministic, using up to 16 threads.
Root relaxation solution time = 0,00 sec. (0,61 ticks)

        Nodes                                         Cuts/
   Node  Left     Objective  IInf  Best Integer    Best Bound    ItCnt     Gap

*     0+    0                          676,0000        0,0000           100,00%
*     0+    0                          435,0000        0,0000           100,00%
*     0+    0                          429,0000        0,0000           100,00%
*     0+    0                          422,0000        0,0000           100,00%
      0     0      169,0000   111      422,0000      169,0000       76   59,95%
*     0+    0                          393,0000      169,0000            57,00%
      0     0      169,0000   111      393,0000     Cuts: 155      124   57,00%
      0     0      169,0000   111      393,0000     Cuts: 119      158   57,00%
      0     0      169,0000   111      393,0000     Cuts: 155      255   57,00%
*     0+    0                          376,0000      169,0000            55,05%
      0     2      193,0556   146      376,0000      191,0000      297   49,20%
Elapsed time = 0,15 sec. (31,59 ticks, tree = 0,02 MB, solutions = 6)
*  4486  2673      integral     0      369,0000      274,6122    81783   25,58%

Performing restart 1

Repeating presolve.
Tried aggregator 1 time.
MIP Presolve eliminated 15 rows and 15 columns.
MIP Presolve added 6 rows and 0 columns.
MIP Presolve modified 30 coefficients.
Reduced MIP has 214 rows, 225 columns, and 904 nonzeros.
Reduced MIP has 225 binaries, 0 generals, 0 SOSs, and 0 indicators.
Presolve time = 0,00 sec. (0,84 ticks)
Tried aggregator 1 time.
Reduced MIP has 214 rows, 225 columns, and 904 nonzeros.
Reduced MIP has 225 binaries, 0 generals, 0 SOSs, and 0 indicators.
Presolve time = 0,00 sec. (0,71 ticks)
Represolve time = 0,01 sec. (4,86 ticks)
*  4579+    0                          365,0000      291,4857            20,14%
   4579     0      208,4625   166      365,0000       Cuts: 5    97546   20,14%
   4579     0      211,5631   166      365,0000       Cuts: 5    97580   20,14%
   4579     0      213,0985   166      365,0000       Cuts: 6    97648   20,14%
   4579     0      214,7587   166      365,0000       Cuts: 7    97675   20,14%
   4579     0      217,1561   166      365,0000      Cuts: 10    97760   20,14%
   4579     2      217,1561   223      365,0000      291,4857    97760   20,14%
   5175    63      345,5000    36      365,0000      291,4857   101035   20,14%
   7467  1822      299,6383   151      365,0000      291,4857   174106   20,14%
   9904  3438      349,2222    89      365,0000      297,4337   252987   18,51%
  12291  4636      349,6424    92      365,0000      307,4095   319891   15,78%
  15081  5603        cutoff            365,0000      316,3017   391948   13,34%
  18155  6308      347,8599    89      365,0000      323,2586   493188   11,44%
  21143  6477        cutoff            365,0000      330,5088   600186    9,45%
  24348  5897        cutoff            365,0000      339,9855   725102    6,85%

Clique cuts applied:  80
Cover cuts applied:  519
Mixed integer rounding cuts applied:  5
Zero-half cuts applied:  21
Gomory fractional cuts applied:  27

Root node processing (before b&c):
  Real time             =    0,15 sec. (31,49 ticks)
Parallel b&c, 16 threads:
  Real time             =    3,91 sec. (2682,77 ticks)
  Sync time (average)   =    1,28 sec.
  Wait time (average)   =    0,00 sec.
                          ------------
Total (root+branch&cut) =    4,06 sec. (2714,26 ticks)
